c User generated cnf file
p cnf 9 35
2 1 -2 0 
-7 2 4 0 
2 -9 1 0 
7 5 -7 0 
-3 5 1 0 
2 -9 1 0 
-9 9 2 0 
-9 8 5 0 
4 8 -9 0 
2 -2 1 0 
1 4 -5 0 
1 -5 7 0 
9 -4 5 0 
4 3 -9 0 
8 -5 2 0 
4 3 -1 0 
6 1 -3 0 
-1 5 6 0 
7 4 -8 0 
6 -8 4 0 
-6 9 7 0 
9 1 -5 0 
9 -2 3 0 
8 -4 4 0 
7 -4 4 0 
2 -6 2 0 
5 1 -4 0 
-8 9 8 0 
-2 6 5 0 
-6 5 7 0 
-1 9 9 0 
7 -1 5 0 
1 2 -8 0 
-7 8 1 0 
-5 7 2 0 
